subscription NodesSubscription {
    environment {
        nodes {
            contents {
                entries {
                    molecule {
                        name
                    }
                    concentration
                }
            }
        }
    }
}
